
List of user-set options:

                                    Name   Value                used
                           compl_inf_tol = 1                     yes
                         constr_viol_tol = 1                     yes
                            dual_inf_tol = 1000                  yes
                           linear_solver = ma97                  yes
                              ma86_small = 1e-30                  no
                                  ma86_u = 0.0001                 no
                              ma97_order = best                  yes
                              ma97_small = 1e-30                 yes
                            ma97_switch1 = at_start              yes
                            ma97_switch2 = od_hd_reuse           yes
                                  ma97_u = 1e-06                 yes
                               ma97_umax = 0.5                   yes
                                max_iter = 1000                  yes
                    max_refinement_steps = 20                    yes
                    min_refinement_steps = 5                     yes
                                 mu_init = 1e-06                 yes
           mu_superlinear_decrease_power = 1.25                  yes
                   nlp_scaling_min_value = 1e-08                 yes
                        option_file_name = Preset_Case:_254_NCP.opt  yes
                             output_file = ./tmp/Preset_Case:_254_NCP.output  yes
                      print_user_options = yes                   yes
        required_infeasibility_reduction = 1                      no
                                     tol = 1e-08                 yes
                   warm_start_bound_frac = 1e-20                 yes
                   warm_start_bound_push = 1e-20                 yes
                   warm_start_init_point = yes                   yes
              warm_start_mult_bound_push = 1e-20                 yes
                warm_start_mult_init_max = 1e+40                 yes
             warm_start_slack_bound_frac = 1e-20                 yes
             warm_start_slack_bound_push = 1e-20                 yes

******************************************************************************
This program contains Ipopt, a library for large-scale nonlinear optimization.
 Ipopt is released as open source code under the Eclipse Public License (EPL).
         For more information visit http://projects.coin-or.org/Ipopt
******************************************************************************

This is Ipopt version 3.12.10, running with linear solver ma97.

Number of nonzeros in equality constraint Jacobian...:   117167
Number of nonzeros in inequality constraint Jacobian.:      213
Number of nonzeros in Lagrangian Hessian.............:    47513

Total number of variables............................:    29977
                     variables with only lower bounds:    11312
                variables with lower and upper bounds:    15135
                     variables with only upper bounds:        0
Total number of equality constraints.................:    29864
Total number of inequality constraints...............:       25
        inequality constraints with only lower bounds:        4
   inequality constraints with lower and upper bounds:        0
        inequality constraints with only upper bounds:       21

iter    objective    inf_pr   inf_du lg(mu)  ||d||  lg(rg) alpha_du alpha_pr  ls
   0 -1.8529306e-01 1.30e-01 2.00e+00  -6.0 0.00e+00    -  0.00e+00 0.00e+00   0
In iteration 0, 8 Slacks too small, adjusting variable bounds
   1 -1.8529306e-01 1.30e-01 1.72e+02  -6.0 1.11e+10    -  1.71e-14 2.18e-18h  1
   2 -1.8529271e-01 1.30e-01 6.62e+02  -6.0 2.29e+02    -  1.00e-02 1.51e-05f  1
   3 -1.8528783e-01 1.30e-01 6.62e+02  -6.0 2.00e+02    -  1.98e-03 2.26e-04h  1
   4 -1.9079951e-01 7.75e-01 5.23e+03  -6.0 8.58e+02    -  1.74e-02 6.62e-02f  1
   5r-1.9079951e-01 7.75e-01 9.99e+02  -0.3 0.00e+00    -  0.00e+00 4.31e-07R  4
   6r-1.9076502e-01 7.75e-01 4.78e+03  -0.3 4.52e+04    -  1.39e-06 1.71e-07f  1
   7 -1.9079329e-01 7.74e-01 1.25e+06  -6.0 1.21e+02    -  1.39e-02 1.26e-03h  1
   8 -1.9107289e-01 7.63e-01 1.63e+07  -6.0 1.24e+02    -  1.26e-03 1.50e-02h  1
   9 -1.9049032e-01 7.17e-01 1.54e+07  -6.0 1.46e+02    -  4.70e-03 5.16e-02h  1
iter    objective    inf_pr   inf_du lg(mu)  ||d||  lg(rg) alpha_du alpha_pr  ls
  10 -1.9008341e-01 7.07e-01 1.52e+07  -6.0 1.48e+02    -  2.26e-02 1.48e-02h  1
  11 -1.8796313e-01 7.04e-01 1.42e+07  -6.0 1.68e+02    -  4.52e-03 6.45e-02h  1
  12 -1.8649183e-01 6.84e-01 1.36e+07  -6.0 1.64e+02    -  4.13e-03 4.35e-02h  2
  13 -1.8630625e-01 6.80e-01 1.35e+07  -6.0 1.56e+02    -  2.42e-02 5.57e-03h  1
  14 -1.8443166e-01 6.21e-01 1.28e+07  -6.0 1.54e+02    -  7.82e-03 5.61e-02h  1
  15 -1.8417174e-01 6.17e-01 1.27e+07  -6.0 1.40e+02    -  6.16e-02 7.09e-03h  1
  16 -1.8317602e-01 6.00e-01 1.23e+07  -6.0 1.29e+02    -  2.58e-02 2.80e-02h  2
  17 -1.8316693e-01 5.99e-01 1.23e+07  -6.0 1.16e+02    -  4.00e-02 2.69e-04h  8
  18 -1.8316463e-01 5.99e-01 1.23e+07  -6.0 1.14e+02    -  4.93e-02 6.85e-05h 10
  19 -1.8316346e-01 5.99e-01 1.23e+07  -6.0 1.12e+02    -  7.87e-03 3.49e-05h 11
iter    objective    inf_pr   inf_du lg(mu)  ||d||  lg(rg) alpha_du alpha_pr  ls
  20 -1.8316288e-01 5.99e-01 1.23e+07  -6.0 1.12e+02    -  1.12e-01 1.74e-05h 12
  21 -1.8195952e-01 5.78e-01 1.19e+07  -6.0 1.11e+02    -  1.66e-02 3.59e-02h  1
  22 -1.8100762e-01 5.57e-01 1.14e+07  -6.0 1.03e+02    -  8.20e-02 3.63e-02h  1
  23 -1.7820491e-01 4.93e-01 1.02e+07  -6.0 1.00e+02    -  3.26e-02 1.11e-01h  1
  24 -1.7469307e-01 4.10e-01 8.56e+06  -6.0 9.30e+01    -  1.08e-01 1.59e-01h  2
  25 -1.6921697e-01 3.77e-01 7.37e+09  -6.0 7.28e+01    -  9.01e-02 2.70e-01H  1
  26 -1.6200296e-01 2.87e-01 4.01e+09  -6.0 4.71e+01    -  3.98e-02 4.56e-01h  1
  27 -1.6199422e-01 2.86e-01 4.00e+09  -6.0 5.95e+01    -  4.57e-02 7.29e-04h  1
  28 -1.6091317e-01 2.60e-01 3.64e+09  -6.0 5.70e+01    -  1.75e-03 9.16e-02h  1
  29 -1.6075874e-01 2.55e-01 3.57e+09  -6.0 2.95e+01    -  8.74e-03 1.80e-02h  1
iter    objective    inf_pr   inf_du lg(mu)  ||d||  lg(rg) alpha_du alpha_pr  ls
  30 -1.5298774e-01 1.96e-01 3.15e+06  -6.0 2.88e+01    -  2.41e-02 1.00e+00h  1
  31 -1.5287684e-01 1.23e-01 1.98e+06  -6.0 1.66e+00    -  1.75e-01 3.73e-01h  1
  32 -1.5258462e-01 2.38e-03 2.38e+03  -6.0 2.02e+00    -  7.74e-01 1.00e+00h  1
  33 -1.5298870e-01 6.33e-04 3.51e+02  -6.0 1.21e+00    -  9.13e-01 1.00e+00h  1
  34 -1.5705793e-01 7.03e-02 8.64e+01  -6.0 1.09e+01    -  7.36e-01 1.00e+00h  1
  35 -1.6041471e-01 1.13e-01 7.64e+01  -6.0 3.14e+01    -  4.19e-01 3.54e-01h  1
  36 -1.6296198e-01 1.35e-01 8.32e+01  -6.0 5.51e+01    -  2.25e-01 2.09e-01h  1
  37 -1.6618699e-01 1.76e-01 5.32e+03  -6.0 6.84e+01    -  5.71e-01 2.49e-01h  1
  38 -1.6919195e-01 1.97e-01 1.21e+04  -6.0 1.91e+02    -  4.66e-01 1.41e-01h  1
  39 -1.6928801e-01 1.55e-01 1.54e+05  -6.0 1.97e+00  -4.0 2.71e-02 2.13e-01h  1
iter    objective    inf_pr   inf_du lg(mu)  ||d||  lg(rg) alpha_du alpha_pr  ls
  40 -1.6952040e-01 9.67e-02 9.43e+04  -6.0 2.13e+00  -4.5 8.23e-01 3.89e-01h  1
  41 -1.7103960e-01 1.18e-01 1.28e+04  -6.0 6.32e+00  -5.0 6.03e-01 8.64e-01h  1
  42 -1.7305965e-01 2.01e-01 6.30e+03  -6.0 1.85e+01  -5.4 7.27e-04 5.00e-01h  1
  43 -1.7496612e-01 2.51e-01 4.80e+03  -6.0 4.89e+01  -5.9 4.93e-01 2.40e-01h  1
  44 -1.7760084e-01 3.29e-01 4.05e+03  -6.0 1.23e+02  -6.4 6.59e-05 1.56e-01f  1
  45 -1.7846714e-01 3.24e-01 3.95e+03  -6.0 2.59e+02  -6.9 2.41e-01 2.52e-02h  1
  46 -1.7979076e-01 6.00e-01 3.88e+03  -6.0 6.41e+02  -7.3 1.14e-01 1.96e-02h  1
  47 -1.8122114e-01 5.92e-01 3.61e+03  -6.0 1.92e+02  -6.9 4.45e-01 7.30e-02h  1
  48 -1.8216487e-01 6.05e-01 3.53e+03  -6.0 7.98e+02  -7.4 7.77e-02 2.04e-02h  3
  49 -1.8803664e-01 5.87e+00 2.33e+03  -6.0 2.04e+02  -7.0 7.84e-01 3.41e-01h  1
iter    objective    inf_pr   inf_du lg(mu)  ||d||  lg(rg) alpha_du alpha_pr  ls
  50 -1.8910621e-01 5.15e+00 2.06e+03  -6.0 5.12e+02  -7.4 1.08e-01 1.17e-01h  1
  51 -1.8997930e-01 4.74e+00 1.88e+03  -6.0 3.07e+02  -7.9 5.20e-01 8.47e-02h  1
  52 -1.9242573e-01 2.60e+00 1.00e+03  -6.0 1.95e+02  -7.5 9.31e-01 4.69e-01h  1
  53 -2.0142712e-01 2.31e+00 1.82e+02  -6.0 3.28e+02  -8.0 2.91e-01 1.00e+00h  1
  54 -2.0239326e-01 1.14e+00 1.19e+02  -6.0 1.39e+02  -7.5 1.00e-01 5.83e-01h  1
  55 -2.0388642e-01 7.72e-01 1.11e+02  -6.0 3.10e+02  -8.0 5.58e-02 3.15e-01h  1
  56 -2.0545357e-01 7.81e-01 2.81e+00  -6.0 1.19e+02  -7.6 1.00e+00 9.61e-01h  1
  57 -2.1073549e-01 7.67e+00 2.26e+01  -6.0 3.97e+02  -8.1 1.88e-01 9.05e-01h  1
  58 -2.1092133e-01 7.58e+00 1.50e+01  -6.0 6.54e+02  -7.6 1.97e-01 2.38e-02h  1
  59 -2.1742880e-01 7.05e+00 2.11e+01  -6.0 4.41e+02  -8.1 4.71e-01 9.90e-01h  1
iter    objective    inf_pr   inf_du lg(mu)  ||d||  lg(rg) alpha_du alpha_pr  ls
  60 -2.1921975e-01 2.61e+00 2.70e+01  -6.0 1.85e+02  -7.7 1.22e-01 8.15e-01h  1
  61 -2.2067478e-01 2.91e+00 8.27e+00  -6.0 1.20e+02  -7.3 8.53e-01 5.72e-01h  1
  62 -2.2178974e-01 4.69e+00 1.81e+01  -6.0 5.85e+01  -6.8 1.00e+00 1.00e+00h  1
  63 -2.2191732e-01 4.77e+00 2.29e+01  -6.0 1.51e+04  -7.3 5.36e-03 7.46e-04h  1
  64 -2.2196918e-01 4.63e+00 3.58e+01  -6.0 1.01e+02  -6.9 1.00e+00 2.96e-02h  1
  65 -2.2291819e-01 4.61e+00 7.47e+01  -6.0 8.65e+02  -7.4 2.00e-01 8.62e-02h  1
  66 -2.2591926e-01 1.06e+00 2.44e+01  -6.0 2.60e+02  -7.9 1.00e+00 1.00e+00h  1
  67 -2.2927547e-01 3.23e+00 2.60e+01  -6.0 8.78e+02  -8.3 7.29e-01 4.66e-01h  1
  68 -2.3032947e-01 3.70e+00 2.19e+01  -6.0 6.98e+03  -8.8 5.74e-02 2.64e-02h  1
  69 -2.3033766e-01 3.57e+00 1.55e+01  -6.0 1.48e+01  -6.6 1.00e+00 3.43e-02h  1
iter    objective    inf_pr   inf_du lg(mu)  ||d||  lg(rg) alpha_du alpha_pr  ls
  70 -2.3081090e-01 5.19e-01 2.20e+00  -6.0 4.52e+01  -7.1 1.00e+00 9.83e-01h  1
  71 -2.3200835e-01 8.08e-01 2.52e+00  -6.0 1.37e+02  -7.5 1.00e+00 1.00e+00h  1
  72 -2.3328964e-01 1.97e+00 1.57e+01  -6.0 4.17e+02  -8.0 1.00e+00 3.71e-01h  1
  73 -2.3583982e-01 1.12e+01 2.86e+01  -6.0 1.27e+03  -8.5 3.40e-01 2.57e-01h  1
  74 -2.3584131e-01 1.12e+01 3.21e+01  -6.0 3.55e+02  -7.2 7.14e-02 5.92e-04h  1
  75 -2.3593096e-01 4.40e+00 7.73e+00  -6.0 7.23e+01  -7.6 9.30e-01 6.07e-01f  1
  76 -2.3697724e-01 1.28e+00 3.72e+00  -6.0 2.18e+02  -8.1 1.00e+00 7.38e-01h  1
  77 -2.3848333e-01 1.03e+00 1.10e+02  -6.0 5.62e+02  -8.6 8.97e-01 4.11e-01h  1
  78 -2.4448702e-01 8.68e+00 7.20e+01  -6.0 7.59e+02  -9.1 8.36e-01 1.00e+00h  1
  79 -2.4481515e-01 8.50e+00 8.24e+01  -6.0 1.28e+04  -9.5 5.66e-02 2.20e-02h  1
iter    objective    inf_pr   inf_du lg(mu)  ||d||  lg(rg) alpha_du alpha_pr  ls
  80 -2.4488810e-01 7.77e+00 8.06e+01  -6.0 6.31e+02  -9.1 3.94e-01 8.73e-02h  1
  81 -2.4658680e-01 7.52e+00 4.23e+01  -6.0 1.92e+03  -9.6 2.33e-01 4.06e-01h  1
  82 -2.4723783e-01 1.69e+00 4.66e+01  -6.0 6.01e+02  -9.2 1.72e-01 1.00e+00h  1
  83 -2.4753507e-01 3.74e+00 4.50e+01  -6.0 6.09e+03  -9.6 4.00e-02 8.12e-02h  1
  84 -2.4825402e-01 3.45e+00 7.22e+00  -6.0 5.74e+02  -9.2 8.87e-01 1.00e+00f  1
  85 -2.4871186e-01 7.53e-01 1.53e+00  -6.0 1.89e+02  -8.8 1.00e+00 1.00e+00h  1
  86 -2.4948504e-01 4.95e+00 9.85e+00  -6.0 1.06e+03  -9.3 4.29e-01 4.43e-01h  1
  87 -2.5035533e-01 3.01e+00 6.48e+00  -6.0 3.74e+02  -8.8 1.00e+00 1.00e+00h  1
  88 -2.5094480e-01 4.13e+00 9.04e+00  -6.0 1.76e+03  -9.3 3.38e-02 1.54e-01h  1
  89 -2.5202288e-01 5.51e+00 1.28e+01  -6.0 5.71e+02  -8.9 8.31e-01 8.09e-01h  1
iter    objective    inf_pr   inf_du lg(mu)  ||d||  lg(rg) alpha_du alpha_pr  ls
  90 -2.5202954e-01 5.28e+00 1.23e+01  -6.0 4.23e-01  -1.0 8.20e-02 4.17e-02h  1
  91 -2.5204599e-01 4.36e+00 1.01e+01  -6.0 4.83e-01  -1.5 8.06e-02 1.74e-01h  1
  92 -2.5205058e-01 4.03e+00 9.35e+00  -6.0 4.65e-01  -2.0 1.34e-01 7.68e-02h  1
  93 -2.5205547e-01 3.70e+00 1.89e+01  -6.0 4.95e-01  -2.5 8.35e-01 8.14e-02h  1
  94 -2.5203117e-01 3.48e+00 1.76e+01  -6.0 6.32e-01  -3.0 5.24e-02 5.86e-02h  1
  95 -2.5206482e-01 1.86e+00 6.50e+00  -6.0 7.29e-01  -3.4 2.74e-01 4.67e-01f  1
  96 -2.5206644e-01 1.69e+00 5.83e+00  -6.0 8.13e+00  -3.9 8.12e-02 8.98e-02h  1
  97 -2.5206387e-01 1.30e+00 8.75e+01  -6.0 4.74e+00  -4.4 1.00e+00 2.29e-01h  1
  98 -2.5211049e-01 2.87e-04 6.29e+02  -6.0 1.86e+00  -4.9 1.96e-02 1.00e+00h  1
  99 -2.5218575e-01 3.93e-03 5.62e+02  -6.0 4.51e+01  -4.4 4.59e-02 9.61e-02h  1
iter    objective    inf_pr   inf_du lg(mu)  ||d||  lg(rg) alpha_du alpha_pr  ls
 100 -2.5220138e-01 3.53e-03 3.76e+02  -6.0 5.69e+00  -4.0 2.86e-01 3.48e-01h  1
 101 -2.5220207e-01 3.47e-03 3.34e+02  -6.0 2.09e+01  -4.5 2.64e-01 2.96e-02f  2
 102 -2.5219782e-01 7.80e-05 3.26e+01  -6.0 1.50e+00  -4.1 1.00e+00 1.00e+00h  1
 103 -2.5219634e-01 3.32e-04 3.92e-01  -6.0 7.42e-02  -4.5 9.28e-01 1.00e+00h  1
 104 -2.5217675e-01 8.38e-04 9.81e+00  -6.0 4.51e-01  -5.0 4.51e-01 1.00e+00h  1
 105 -2.5216266e-01 3.23e-04 1.03e+00  -6.0 3.02e-01  -5.5 8.52e-01 1.00e+00h  1
 106 -2.5215350e-01 1.69e-04 3.82e-02  -6.0 5.49e-01  -6.0 1.00e+00 1.00e+00h  1
 107 -2.5215284e-01 1.61e-04 9.87e-03  -6.0 1.95e+00  -6.4 1.00e+00 1.00e+00h  1
 108 -2.5216435e-01 1.44e-03 2.56e-03  -6.0 5.98e+00  -6.9 1.00e+00 1.00e+00h  1
 109 -2.5220912e-01 1.94e-02 1.90e-02  -6.0 1.77e+01  -7.4 1.00e+00 1.00e+00h  1
iter    objective    inf_pr   inf_du lg(mu)  ||d||  lg(rg) alpha_du alpha_pr  ls
 110 -2.5235458e-01 2.24e-01 1.62e-01  -6.0 5.36e+01  -7.9 1.00e+00 1.00e+00h  1
 111 -2.5281072e-01 8.14e-01 1.54e+00  -6.0 1.65e+02  -8.4 6.56e-01 1.00e+00h  1
 112 -2.5291972e-01 7.75e-01 1.52e+00  -6.0 9.29e+02  -8.8 7.18e-02 6.19e-02h  1
 113 -2.5496041e-01 1.45e+01 3.66e+01  -6.0 2.52e+03  -9.3 2.47e-02 3.13e-01h  1
 114 -2.5493567e-01 1.34e+01 3.38e+01  -6.0 7.22e+02  -7.1 2.21e-01 7.96e-02h  1
 115 -2.5494120e-01 1.04e+01 2.63e+01  -6.0 7.78e+01  -6.7 5.68e-03 2.23e-01h  1
 116 -2.5495107e-01 9.05e+00 2.27e+01  -6.0 6.36e+01  -7.1 2.03e-01 1.33e-01h  1
 117 -2.5508362e-01 3.15e-03 1.07e+01  -6.0 1.52e+01  -7.6 1.63e-01 1.00e+00h  1
 118 -2.5508145e-01 3.15e-03 1.29e+01  -6.0 1.01e+03  -8.1 8.30e-03 2.09e-03h  2
 119 -2.5516884e-01 4.40e-02 7.07e+00  -6.0 1.37e+02  -8.6 7.80e-01 4.44e-01h  1
iter    objective    inf_pr   inf_du lg(mu)  ||d||  lg(rg) alpha_du alpha_pr  ls
 120 -2.5535074e-01 8.02e-02 4.21e+00  -6.0 3.71e+02  -9.0 7.51e-01 3.61e-01h  1
 121 -2.5652457e-01 8.74e-01 8.63e+00  -6.0 8.54e+02  -9.5 5.01e-01 1.00e+00h  1
 122 -2.5727058e-01 3.56e+00 6.82e+00  -6.0 2.32e+03 -10.0 1.00e+00 6.21e-01h  1
 123 -2.5788202e-01 7.36e+00 1.27e+01  -6.0 1.16e+03  -9.6 9.04e-01 1.00e+00h  1
 124 -2.5798981e-01 6.91e+00 1.08e+01  -6.0 1.42e+02  -9.1 1.15e-01 1.52e-01h  1
 125 -2.5834951e-01 9.26e+00 1.85e+01  -6.0 2.18e+01  -6.9 1.65e-01 3.75e-01h  1
 126 -2.5847890e-01 1.18e+01 5.28e+01  -6.0 2.63e+01  -7.4 7.48e-02 7.10e-01h  1
 127 -2.5847799e-01 1.13e+01 5.10e+01  -6.0 7.24e+00  -5.2 7.51e-02 4.22e-02h  1
 128 -2.5849299e-01 3.10e+00 1.58e+01  -6.0 4.88e+00  -5.6 1.00e+00 7.17e-01h  1
 129 -2.5857088e-01 1.59e-01 1.23e+00  -6.0 2.73e+00  -6.1 1.00e+00 1.00e+00h  1
iter    objective    inf_pr   inf_du lg(mu)  ||d||  lg(rg) alpha_du alpha_pr  ls
 130 -2.5867660e-01 1.22e-01 1.81e+01  -6.0 6.99e+00  -6.6 8.67e-01 5.47e-01h  1
 131 -2.5871924e-01 1.15e-01 1.11e+02  -6.0 1.22e+01  -7.1 1.00e+00 2.98e-01f  1
 132 -2.5881650e-01 2.90e-01 3.39e+01  -6.0 1.80e+01  -7.5 6.90e-01 6.93e-01h  1
 133 -2.5897767e-01 1.93e-01 1.67e+00  -6.0 5.34e+01  -8.0 1.00e+00 1.00e+00h  1
 134 -2.5906840e-01 1.28e-01 9.56e+01  -6.0 1.49e+02  -8.5 3.63e-01 3.09e-01h  1
 135 -2.5952005e-01 1.04e+00 3.40e+01  -6.0 3.61e+02  -9.0 1.00e+00 1.00e+00h  1
 136 -2.5968192e-01 7.62e-01 6.35e+02  -6.0 3.02e+02  -9.4 2.19e-01 2.89e-01h  1
 137 -2.5982673e-01 6.93e-01 1.75e+05  -6.0 5.02e+02  -9.9 1.27e-02 3.83e-01h  1
 138 -2.5999265e-01 2.81e+00 8.90e+04  -6.0 9.89e+02 -10.4 4.95e-01 4.89e-01f  1
 139 -2.6000041e-01 8.08e-01 2.54e+04  -6.0 1.44e+02  -8.2 1.00e+00 7.13e-01h  1
iter    objective    inf_pr   inf_du lg(mu)  ||d||  lg(rg) alpha_du alpha_pr  ls
 140 -2.6007696e-01 1.97e+00 1.26e+02  -6.0 3.28e+02  -8.6 2.65e-01 1.00e+00h  1
 141 -2.6012068e-01 8.45e-02 1.97e-01  -6.0 7.11e+01  -9.1 1.00e+00 1.00e+00h  1
 142 -2.6017513e-01 1.11e+00 4.54e-01  -6.0 2.49e+02  -9.6 1.00e+00 1.00e+00h  1
 143 -2.6019810e-01 1.46e+00 3.10e+01  -6.0 7.75e+02 -10.1 7.01e-01 2.40e-01h  2
 144 -2.6019795e-01 2.40e+00 1.19e+00  -6.0 3.75e+02  -9.7 1.00e+00 1.00e+00h  1
 145 -2.6022782e-01 3.14e+00 5.20e+00  -6.0 1.53e+03 -10.1 2.18e-01 1.77e-01h  1
 146 -2.6023434e-01 5.02e-02 6.33e-02  -6.0 5.04e+01  -8.8 1.00e+00 1.00e+00h  1
 147 -2.6025285e-01 3.71e-01 1.68e-01  -6.0 1.45e+02  -9.3 1.00e+00 1.00e+00h  1
 148 -2.6025721e-01 1.09e+01 4.15e+01  -6.0 9.68e+02  -9.8 3.22e-01 8.08e-01h  1
 149 -2.6028477e-01 3.65e+00 4.91e+01  -6.0 5.26e+02 -10.2 5.14e-01 1.00e+00h  1
iter    objective    inf_pr   inf_du lg(mu)  ||d||  lg(rg) alpha_du alpha_pr  ls
 150 -2.6026265e-01 7.16e+00 2.54e+01  -6.0 1.37e+03 -10.7 3.45e-01 4.62e-01h  1
 151 -2.6023913e-01 3.33e+01 1.55e+01  -6.0 3.21e+03 -11.2 7.51e-01 4.76e-01h  1
 152 -2.6023464e-01 3.20e+01 2.67e+02  -6.0 1.80e+04 -11.7 1.71e-01 4.20e-02h  1
 153 -2.6021381e-01 4.03e+01 7.58e+02  -6.0 5.94e+03    -  5.96e-01 1.82e-01h  1
 154 -2.6021688e-01 2.89e+01 2.39e+03  -6.0 8.99e+02 -10.3 1.16e-01 3.03e-01h  1
 155 -2.6021082e-01 2.84e+01 2.28e+03  -6.0 5.19e+03    -  1.85e-01 6.67e-02h  1
 156 -2.6018509e-01 1.11e+01 8.95e+02  -6.0 7.35e+02    -  9.66e-02 6.12e-01h  1
 157 -2.6016489e-01 5.89e+00 9.12e+01  -6.0 7.42e+02    -  1.00e+00 8.97e-01h  1
 158 -2.6015852e-01 2.50e+00 8.66e+00  -6.0 4.60e+02    -  5.84e-01 1.00e+00h  1
 159 -2.6015890e-01 2.18e-02 5.34e-04  -6.0 2.47e+01  -9.0 1.00e+00 1.00e+00h  1
iter    objective    inf_pr   inf_du lg(mu)  ||d||  lg(rg) alpha_du alpha_pr  ls
 160 -2.6015883e-01 3.21e-01 7.03e+00  -6.0 4.80e+02    -  1.00e+00 2.06e-01h  2
 161 -2.6015878e-01 1.73e-01 1.02e-03  -6.0 4.21e+01  -9.5 1.00e+00 1.00e+00h  1
 162 -2.6015873e-01 2.96e-01 3.83e+00  -6.0 2.96e+02 -10.0 1.00e+00 2.77e-01h  2
 163 -2.6015857e-01 3.47e-01 5.78e+01  -6.0 3.58e+03    -  8.71e-01 2.80e-02h  2
 164 -2.6015559e-01 2.02e+00 1.81e-01  -6.0 4.14e+02    -  1.00e+00 1.00e+00h  1
 165 -2.6015585e-01 1.94e+00 1.29e+01  -6.0 1.00e+03    -  1.00e+00 1.20e-01h  2
 166 -2.6015764e-01 7.36e-02 8.72e+00  -6.0 8.17e+01    -  4.74e-01 1.00e+00h  1
 167 -2.6015810e-01 7.24e-05 1.01e-04  -6.0 2.43e+00    -  1.00e+00 1.00e+00h  1
 168 -2.6015814e-01 8.54e-06 8.91e-07  -6.0 8.60e-01    -  1.00e+00 1.00e+00h  1
 169 -2.6061783e-01 1.27e+00 8.73e+01  -7.5 2.41e+03    -  5.08e-01 2.01e-01h  1
iter    objective    inf_pr   inf_du lg(mu)  ||d||  lg(rg) alpha_du alpha_pr  ls
 170 -2.6068983e-01 1.32e+00 1.34e+02  -7.5 2.82e+02  -9.5 4.15e-01 5.43e-02h  1
 171 -2.6090887e-01 1.61e+00 1.25e+02  -7.5 3.11e+03    -  2.54e-01 1.39e-01h  1
 172 -2.6098410e-01 2.82e+00 8.75e+01  -7.5 9.43e+02  -9.1 6.86e-02 2.23e-01h  1
 173 -2.6111795e-01 2.28e+00 1.06e+02  -7.5 1.82e+02  -8.7 7.47e-01 1.95e-01h  1
 174 -2.6156225e-01 1.53e+00 6.12e+01  -7.5 3.40e+02  -9.2 9.45e-01 7.45e-01h  1
 175 -2.6175107e-01 2.50e+00 3.97e+01  -7.5 3.25e+03    -  3.62e-01 3.51e-01h  1
 176 -2.6179228e-01 9.59e-01 1.65e+01  -7.5 1.85e+02  -9.6 7.37e-01 6.19e-01h  1
 177 -2.6179745e-01 3.59e-01 5.97e+00  -7.5 2.11e+01  -7.4 5.06e-01 6.31e-01h  1
 178 -2.6186596e-01 1.15e+00 3.92e+00  -7.5 2.15e+03    -  3.35e-01 3.43e-01h  1
 179 -2.6186867e-01 7.95e-01 2.67e+00  -7.5 8.80e+00  -7.9 4.60e-03 3.11e-01h  1
iter    objective    inf_pr   inf_du lg(mu)  ||d||  lg(rg) alpha_du alpha_pr  ls
 180 -2.6186967e-01 1.68e-01 5.83e-01  -7.5 7.69e+00  -8.4 1.00e+00 7.88e-01h  1
 181 -2.6192267e-01 5.78e+00 9.34e-01  -7.5 1.64e+03    -  1.81e-01 5.70e-01h  1
 182 -2.6192826e-01 5.85e-01 3.57e-01  -7.5 7.87e+02    -  1.88e-01 1.00e+00h  1
 183 -2.6192640e-01 8.23e-01 9.91e-02  -7.5 2.81e+02    -  7.53e-01 7.16e-01h  1
 184 -2.6192601e-01 7.20e-01 2.37e-01  -7.5 6.07e+02    -  1.00e+00 1.25e-01h  4
 185 -2.6192337e-01 3.82e-05 1.05e-04  -7.5 4.40e-01  -8.8 1.00e+00 1.00e+00h  1
 186 -2.6192340e-01 6.72e-01 3.16e-02  -7.5 6.41e+02    -  3.61e-01 2.50e-01h  3
 187 -2.6192338e-01 6.54e-05 5.78e-07  -7.5 1.37e+00  -9.3 1.00e+00 1.00e+00h  1
 188 -2.6192338e-01 4.18e-04 3.29e-07  -7.5 4.13e+00  -9.8 1.00e+00 1.00e+00h  1
 189 -2.6192338e-01 4.63e-03 2.99e-06  -7.5 1.27e+01 -10.3 1.00e+00 1.00e+00h  1
iter    objective    inf_pr   inf_du lg(mu)  ||d||  lg(rg) alpha_du alpha_pr  ls
 190 -2.6192339e-01 9.26e-02 3.30e-05  -7.5 4.20e+01 -10.7 1.00e+00 1.00e+00h  1
 191 -2.6192345e-01 6.16e-01 8.48e-02  -7.5 3.41e+02 -11.2 3.16e-01 1.00e+00H  1
 192 -2.6192416e-01 1.32e+00 3.60e-01  -7.5 1.44e+03 -11.7 7.18e-01 1.00e+00H  1
 193 -2.6192566e-01 7.52e-01 7.46e-01  -7.5 2.20e+03 -12.2 6.50e-01 1.00e+00H  1
 194 -2.6192591e-01 4.92e-01 5.77e-01  -7.5 3.46e+04    -  4.53e-02 8.58e-03h  4
 195 -2.6192616e-01 1.67e+00 1.65e+00  -7.5 7.48e+03    -  5.35e-01 3.87e-02h  4
 196 -2.6192677e-01 7.14e+00 1.03e+00  -7.5 7.04e+02    -  4.18e-01 1.00e+00h  1
 197 -2.6192677e-01 4.28e-02 3.95e-01  -7.5 3.25e+01    -  3.87e-01 1.00e+00h  1
 198 -2.6192693e-01 1.28e+00 1.11e-03  -7.5 1.57e+02    -  1.00e+00 1.00e+00h  1
 199 -2.6192798e-01 1.64e+01 3.73e-01  -7.5 1.05e+03    -  4.28e-01 1.00e+00h  1
iter    objective    inf_pr   inf_du lg(mu)  ||d||  lg(rg) alpha_du alpha_pr  ls
 200 -2.6193070e-01 3.89e+00 3.27e+00  -7.5 2.33e+03    -  3.00e-01 1.00e+00H  1
 201 -2.6193023e-01 3.50e+00 1.75e-01  -7.5 4.51e+02    -  1.00e+00 1.00e+00h  1
 202 -2.6192992e-01 1.27e+00 5.17e-03  -7.5 2.76e+02    -  1.00e+00 1.00e+00h  1
 203 -2.6192991e-01 8.44e-04 2.00e-05  -7.5 8.35e+00    -  1.00e+00 1.00e+00h  1
 204 -2.6192991e-01 1.64e-06 7.01e-09  -7.5 3.11e-01    -  1.00e+00 1.00e+00h  1
 205 -2.6192991e-01 3.05e-10 4.91e-13  -7.5 4.68e-06    -  1.00e+00 1.00e+00h  1
 206 -2.6193232e-01 2.66e+00 4.73e+00  -9.0 1.63e+03    -  5.20e-01 2.44e-01h  1
 207 -2.6193560e-01 5.63e+01 5.18e-01  -9.0 3.09e+03    -  4.08e-01 5.84e-01h  1
 208 -2.6193637e-01 3.87e+01 1.02e+01  -9.0 1.48e+03    -  6.50e-03 5.45e-01h  1
 209 -2.6193740e-01 3.72e+01 4.10e+00  -9.0 1.43e+03    -  1.01e-01 8.86e-01h  1
iter    objective    inf_pr   inf_du lg(mu)  ||d||  lg(rg) alpha_du alpha_pr  ls
 210 -2.6193822e-01 2.85e+01 2.38e+00  -9.0 1.13e+03    -  4.52e-01 1.00e+00h  1
 211 -2.6193874e-01 3.84e+01 2.08e+00  -9.0 9.43e+03    -  1.28e-01 7.79e-02h  1
 212 -2.6193921e-01 2.78e+01 3.38e+00  -9.0 1.66e+03    -  2.29e-01 3.42e-01h  1
 213 -2.6193921e-01 2.78e+01 3.71e+00  -9.0 1.17e+05    -  6.30e-03 1.95e-04h  8
 214 -2.6193971e-01 1.77e+00 4.14e+01  -9.0 3.88e+02 -12.7 1.38e-01 1.00e+00h  1
 215 -2.6193974e-01 1.21e+00 2.44e+01  -9.0 2.81e+02 -12.2 1.30e-01 4.10e-01h  1
 216 -2.6194009e-01 9.91e+01 1.78e+01  -9.0 1.06e+04    -  3.87e-02 2.72e-01h  1
 217 -2.6194063e-01 1.24e+01 8.31e+00  -9.0 8.74e+02    -  2.71e-02 1.00e+00h  1
 218 -2.6194158e-01 7.75e+01 5.92e+00  -9.0 7.72e+03 -12.7 2.10e-01 2.92e-01h  1
 219 -2.6194157e-01 7.35e+01 5.68e+00  -9.0 1.06e+03 -12.3 1.15e-01 5.14e-02h  1
iter    objective    inf_pr   inf_du lg(mu)  ||d||  lg(rg) alpha_du alpha_pr  ls
 220 -2.6194168e-01 5.82e+01 4.42e+00  -9.0 3.44e+03 -12.8 6.37e-02 2.09e-01h  3
 221 -2.6194256e-01 6.36e+01 7.87e-01  -9.0 4.26e+03 -13.2 2.31e-01 7.84e-01H  1
 222 -2.6194241e-01 5.36e+01 6.40e-01  -9.0 2.39e+03    -  4.04e-01 2.12e-01h  1
 223 -2.6194284e-01 2.04e+01 1.22e+00  -9.0 1.22e+03 -11.9 9.92e-04 1.00e+00h  1
 224 -2.6194405e-01 4.29e+01 1.47e-01  -9.0 1.65e+03 -12.4 5.56e-01 1.00e+00h  1
 225 -2.6194464e-01 5.25e+01 1.42e-01  -9.0 4.15e+04    -  3.43e-02 1.90e-02h  1
 226 -2.6194528e-01 8.25e+01 2.50e-01  -9.0 4.75e+03    -  4.72e-01 5.22e-01h  1
 227 -2.6194631e-01 6.67e+01 1.91e+00  -9.0 4.87e+03    -  9.78e-03 2.35e-01h  1
 228 -2.6194781e-01 5.37e+01 4.99e+00  -9.0 1.99e+03    -  1.20e-01 7.86e-01h  1
 229 -2.6194843e-01 4.18e+01 2.34e+00  -9.0 1.82e+03    -  3.29e-02 3.56e-01h  1
iter    objective    inf_pr   inf_du lg(mu)  ||d||  lg(rg) alpha_du alpha_pr  ls
 230 -2.6194869e-01 3.64e+01 8.86e+00  -9.0 1.82e+03    -  4.05e-02 1.69e-01h  1
 231 -2.6194895e-01 3.22e+01 7.01e+00  -9.0 1.95e+03    -  4.67e-01 1.48e-01h  1
 232 -2.6195026e-01 4.46e+01 2.01e+02  -9.0 1.75e+03    -  3.94e-02 8.57e-01h  1
 233 -2.6195111e-01 4.65e+01 5.23e+01  -9.0 1.55e+03    -  8.47e-03 1.00e+00h  1
 234 -2.6195127e-01 4.31e+01 4.90e+01  -9.0 5.80e+03 -12.9 1.13e-01 7.33e-02h  1
 235 -2.6195124e-01 1.58e+01 8.93e+00  -9.0 8.22e+02    -  3.27e-01 1.00e+00h  1
 236 -2.6195195e-01 4.33e+01 3.66e+00  -9.0 2.06e+03    -  2.10e-01 6.73e-01h  1
 237 -2.6195209e-01 3.16e+01 2.07e+00  -9.0 1.26e+03    -  4.79e-01 6.66e-01h  1
 238 -2.6195186e-01 2.13e+01 1.39e+00  -9.0 1.00e+03    -  1.19e-01 8.70e-01h  1
 239 -2.6195191e-01 7.91e-01 1.22e+00  -9.0 1.65e+02    -  2.99e-03 1.00e+00h  1
iter    objective    inf_pr   inf_du lg(mu)  ||d||  lg(rg) alpha_du alpha_pr  ls
 240 -2.6195202e-01 5.40e+00 1.09e-03  -9.0 4.84e+02    -  1.00e+00 1.00e+00h  1
 241 -2.6195206e-01 4.80e+00 8.51e-03  -9.0 6.97e+02    -  1.00e+00 2.78e-01h  1
 242 -2.6195205e-01 4.62e-03 8.61e-05  -9.0 1.87e+01    -  1.00e+00 1.00e+00h  1
 243 -2.6195205e-01 3.24e-04 9.30e-08  -9.0 3.67e+00    -  1.00e+00 1.00e+00h  1
 244 -2.6195205e-01 4.11e-08 9.16e-12  -9.0 4.10e-02    -  1.00e+00 1.00e+00h  1
 245 -2.6195205e-01 3.15e-10 1.40e-14  -9.0 7.28e-07    -  1.00e+00 1.00e+00h  1

Number of Iterations....: 245

                                   (scaled)                 (unscaled)
Objective...............:  -2.6195204894553054e-01   -2.6195204894553054e-01
Dual infeasibility......:   1.4016565685892601e-14    1.4016565685892601e-14
Constraint violation....:   3.1512829433595624e-10    3.1512829433595624e-10
Complementarity.........:   9.0909091850956537e-10    9.0909091850956537e-10
Overall NLP error.......:   9.0909091850956537e-10    9.0909091850956537e-10


Number of objective function evaluations             = 369
Number of objective gradient evaluations             = 246
Number of equality constraint evaluations            = 369
Number of inequality constraint evaluations          = 370
Number of equality constraint Jacobian evaluations   = 247
Number of inequality constraint Jacobian evaluations = 247
Number of Lagrangian Hessian evaluations             = 245
Total CPU secs in IPOPT (w/o function evaluations)   =    404.079
Total CPU secs in NLP function evaluations           =      8.227

EXIT: Optimal Solution Found.
